********************************************************************************
Field Output Report, written Fri Apr  2 11:29:10 2021

Source 1
---------

   ODB: C:/temp/Prototype1.odb
   Step: Loading
   Frame: Increment      1: Step Time =    1.000

Loc 1 : Nodal values at beam < rectangular > < elset = ASSEMBLY_TRUSS-1__PICKEDSET2 > from source 1 : Bottom, (fraction = -1.0)
Loc 2 : Nodal values at beam < rectangular > < elset = ASSEMBLY_TRUSS-1__PICKEDSET2 > from source 1 : Top, (fraction = 1.0)

Output sorted by column "Node Label".

Field Output reported at nodes for part: TRUSS-1
   Computation algorithm: EXTRAPOLATE_COMPUTE_AVERAGE
   Averaged at nodes
   Averaging regions: ODB_REGIONS

      Node Label         S.Mises         S.Mises
                          @Loc 1          @Loc 2
-------------------------------------------------
               1     57.4146E+03     31.8967E+03
               2     32.9393E+03     32.9393E+03
               3     68.4852E+03     81.4000E+03
               4     26.7557E+03     76.5629E+03
               5     80.5589E+03     77.8322E+03
               6     188.197E+03     16.9212E+03
               7     159.636E+03     163.296E+03
               8     159.838E+03     167.652E+03
               9     231.584E+03     85.7714E+03
              10     8.79161E+03     296.888E+03
              11     97.1108E+03     221.460E+03
              12     56.6459E+03     3.30486E+03
              13     50.8094E+03     9.14143E+03
              14     44.9728E+03     14.9780E+03
              15     39.1362E+03     20.8146E+03
              16     33.2997E+03     26.6511E+03
              17     27.4631E+03     32.4877E+03
              18     21.6265E+03     38.3243E+03
              19     15.7900E+03     44.1608E+03
              20     9.95342E+03     49.9974E+03
              21     11.4555E+03     47.1590E+03
              22     15.7332E+03     42.8813E+03
              23     20.0108E+03     38.6036E+03
              24     24.2885E+03     34.3259E+03
              25     28.5662E+03     30.0483E+03
              26     32.8439E+03     25.7706E+03
              27     37.1215E+03     21.4929E+03
              28     41.3992E+03     17.2152E+03
              29     45.6769E+03     12.9376E+03
              30     78.6682E+03     48.9767E+03
              31     73.7896E+03     53.8553E+03
              32     68.9109E+03     58.7340E+03
              33     64.0326E+03     63.6123E+03
              34     59.1539E+03     68.4910E+03
              35     54.2753E+03     73.3696E+03
              36     30.4469E+03     88.3910E+03
              37     38.6762E+03     80.1617E+03
              38     46.9056E+03     71.9323E+03
              39     55.1352E+03     63.7027E+03
              40     63.3646E+03     55.4733E+03
              41     71.5939E+03     47.2440E+03
              42     59.3374E+03     24.7443E+03
              43     56.0708E+03     28.0109E+03
              44     52.8042E+03     31.2775E+03
              45     49.5376E+03     34.5441E+03
              46     46.2710E+03     37.8107E+03
              47     43.0044E+03     41.0773E+03
              48     39.7378E+03     44.3439E+03
              49     36.4712E+03     47.6105E+03
              50     33.2046E+03     50.8771E+03
              51     42.2012E+03     36.8692E+03
              52     39.6559E+03     39.4145E+03
              53     37.1106E+03     41.9597E+03
              54     34.5651E+03     44.5053E+03
              55     32.0199E+03     47.0505E+03
              56     29.4746E+03     49.5958E+03
              57     145.788E+03     28.1381E+03
              58     130.808E+03     43.1189E+03
              59     115.827E+03     58.0993E+03
              60     100.847E+03     73.0798E+03
              61     85.8664E+03     88.0602E+03
              62     70.8856E+03     103.041E+03
              63     171.956E+03     64.8593E+03
              64     154.270E+03     82.5448E+03
              65     136.584E+03     100.231E+03
              66     118.899E+03     117.916E+03
              67     101.213E+03     135.602E+03
              68     83.5272E+03     153.288E+03
              69     104.948E+03     55.6943E+03
              70      84.631E+03     35.3775E+03
              71     64.3142E+03     15.0607E+03
              72     43.9974E+03     5.25606E+03
              73     23.6807E+03     25.5728E+03
              74     3.36389E+03     45.8896E+03
              75     16.9529E+03     66.2064E+03
              76     37.2697E+03     86.5232E+03
              77     57.5864E+03     106.840E+03
              78     42.2189E+03     157.780E+03
              79     68.5295E+03     131.470E+03
              80     94.8402E+03     105.159E+03
              81     121.151E+03     78.8483E+03
              82     147.462E+03     52.5375E+03
              83     173.772E+03     26.2270E+03
              84     71.3717E+03     138.193E+03
              85     93.1923E+03     116.372E+03
              86     115.013E+03     94.5516E+03
              87     136.833E+03     72.7313E+03
              88     158.653E+03     50.9110E+03
              89     180.474E+03     29.0904E+03
              90     19.2786E+03     68.4427E+03
              91     30.0779E+03     57.6433E+03
              92     40.8773E+03     46.8440E+03
              93     51.6764E+03     36.0448E+03
              94     62.4757E+03     25.2455E+03
              95     73.2751E+03     14.4461E+03
              96     68.1015E+03     22.8938E+03
              97     56.6859E+03     11.4782E+03
              98     45.2703E+03         62.5779
              99     33.8546E+03     11.3530E+03
             100     22.4390E+03     22.7687E+03
             101     11.0234E+03     34.1843E+03
             102         392.233     45.5999E+03
             103     11.8079E+03     57.0156E+03
             104     23.2235E+03     68.4312E+03
             105     202.532E+03     94.2293E+03
             106     194.145E+03     102.617E+03
             107     185.758E+03     111.004E+03
             108     177.371E+03     119.391E+03
             109     168.983E+03     127.778E+03
             110     160.596E+03     136.165E+03
             111     152.209E+03     144.553E+03
             112     143.822E+03     152.940E+03
             113     135.435E+03     161.327E+03
             114     79.2685E+03     195.485E+03
             115     88.3672E+03     186.387E+03
             116     97.4659E+03     177.288E+03
             117     106.565E+03     168.189E+03
             118     115.663E+03     159.091E+03
             119     124.762E+03     149.992E+03
             120     133.861E+03     140.893E+03
             121     142.959E+03     131.794E+03
             122     152.058E+03     122.696E+03
             123     511.205E+03     138.742E+03
             124     485.100E+03     164.848E+03
             125     458.994E+03     190.953E+03
             126     432.888E+03     217.059E+03
             127     406.783E+03     243.165E+03
             128     380.677E+03     269.270E+03
             129     354.571E+03     295.376E+03
             130     328.466E+03     321.481E+03
             131     302.360E+03     347.587E+03
             132     25.5521E+03     276.566E+03
             133     47.5333E+03     254.584E+03
             134     69.5146E+03     232.603E+03
             135     91.4959E+03     210.622E+03
             136     113.477E+03     188.641E+03
             137     135.458E+03     166.659E+03
             138     11.6250E+03     274.059E+03
             139     46.0550E+03     239.629E+03
             140     80.4853E+03     205.199E+03
             141     114.915E+03     170.769E+03
             142     149.346E+03     136.339E+03
             143     183.776E+03     101.909E+03
             144     143.345E+03     494.815E+03
             145     167.063E+03     471.097E+03
             146     190.781E+03     447.379E+03
             147     214.499E+03     423.661E+03
             148     238.217E+03     399.943E+03
             149     261.935E+03     376.225E+03
             150     285.653E+03     352.507E+03
             151     309.371E+03     328.789E+03
             152     333.089E+03     305.071E+03
             153     147.853E+03     169.699E+03
             154     124.001E+03     193.551E+03
             155     100.149E+03     217.404E+03
             156     76.2967E+03     241.256E+03
             157     52.4443E+03     265.108E+03
             158     28.5921E+03     288.961E+03
             159     153.789E+03     109.864E+03
             160     127.483E+03     136.170E+03
             161     101.176E+03     162.477E+03
             162     74.8694E+03     188.784E+03
             163     48.5627E+03     215.091E+03
             164     22.2560E+03     241.397E+03
             165     109.221E-21     100.390E-21
             166              0.              0.
             167              0.              0.
             168              0.              0.
             169              0.              0.
             170              0.              0.
             171              0.              0.
             172              0.              0.
             173     109.395E-21     100.226E-21


  Minimum                     0.              0.
         At Node             172             172

  Maximum            511.205E+03     494.815E+03
         At Node             123             144

           Total     17.3052E+06     19.4604E+06


